c Problem Statistics
c Number of variables: 924
c Number of clauses: 796
c Parse time (sec.) : 0.00
c
p cnf 924 321
-196 0
-17 0
-31 0
45 0
59 0
73 0
-87 0
-101 0
-115 0
-129 0
-19 0
30 0
-44 0
-58 0
-72 0
86 0
100 0
-37 0
49 0
-77 0
78 0
79 0
-93 0
-107 0
-108 0
-103 0
-104 0
-105 0
106 0
110 0
-177 0
-181 0
195 0
2 0
15 0
3 0
16 0
29 0
4 0
43 0
5 0
18 0
57 0
6 0
71 0
7 0
85 0
8 0
99 0
9 0
23 0
113 0
10 0
24 0
127 0
11 0
25 0
128 0
141 0
12 0
26 0
142 0
155 0
13 0
27 0
156 0
169 0
14 0
170 0
183 0
28 0
171 0
42 0
172 0
21 0
34 0
35 0
48 0
46 0
33 0
47 0
60 0
74 0
88 0
89 0
102 0
90 0
116 0
130 0
52 0
67 0
68 0
56 0
63 0
94 0
95 0
109 0
96 0
97 0
111 0
83 0
84 0
98 0
112 0
92 0
118 0
119 0
120 0
133 0
121 0
134 0
122 0
135 0
148 0
123 0
149 0
137 0
124 0
138 0
139 0
153 0
145 0
132 0
146 0
154 0
144 0
158 0
173 0
176 0
163 0
178 0
179 0
180 0
167 0
182 0
188 0
189 0
185 0
191 0
126 0
192 0
186 0
61 0
150 0
40 0
157 0
22 0
36 0
64 0
69 0
55 0
76 0
81 0
140 0
125 0
162 0
175 0
174 0
193 0
70 0
65 0
82 0
190 0
194 164 -160 -161 -159 0
-161 117 151 -164 0
53 -54 39 1 0
54 -53 39 1 0
402 20 -62 32 0
402 -20 32 62 0
-136 117 -164 -161 0
-143 -131 -159 -1 0
801 -165 -164 -151 0
-53 54 41 1 0
-54 168 -117 80 0
159 -143 -1 131 0
75 -20 -32 62 0
184 159 -187 -1 0
-808 165 166 152 0
808 165 -166 152 0
-801 165 -164 -151 0
785 -161 -147 -160 0
-786 161 147 -160 0
136 117 -164 161 0
-184 159 -187 1 0
788 -161 147 160 0
-788 161 147 160 0
787 160 -147 -161 0
-787 161 160 -147 0
786 -161 -160 147 0
-806 -165 166 152 0
806 -166 152 -165 0
-807 165 166 -152 0
807 -152 -166 165 0
359 -50 1 -20 0
-359 -20 50 1 0
804 -165 151 164 0
-805 -165 -152 166 0
805 -165 -152 -166 0
62 -66 -50 51 0
75 -62 -32 20 0
53 -54 41 1 0
399 -20 62 -32 0
-399 -20 -62 -32 0
399 20 -62 -32 0
-399 20 62 -32 0
-53 80 168 -117 0
372 -53 -51 39 0
166 -168 54 53 0
-802 165 -164 151 0
802 -165 -164 151 0
-803 165 -151 164 0
803 -165 -151 164 0
-785 161 -147 -160 0
-402 20 32 62 0
-804 165 164 151 0
-369 51 -39 53 0
369 51 -39 -53 0
-402 -20 32 -62 0
-370 51 39 53 0
370 51 39 -53 0
-371 -51 -39 53 0
371 -51 -39 -53 0
-372 -51 39 53 0
51 -361 -50 0
-360 50 -1 0
164 -161 -151 0
136 164 -161 0
166 -194 -164 0
143 159 -131 0
166 -194 159 0
166 -194 161 0
-194 166 160 0
166 -168 -80 0
159 1 -131 0
-184 187 -1 0
692 -136 117 0
-20 -62 -75 0
-160 -131 -159 0
-692 136 117 0
151 117 152 0
53 54 -41 0
717 -143 -1 0
-53 -54 -1 0
689 -136 -117 0
-131 117 -147 0
184 1 187 0
-168 166 117 0
143 -159 131 0
-53 -54 -39 0
20 62 -75 0
53 54 -39 0
1 39 -38 0
875 -184 -1 0
-875 184 -1 0
874 -184 1 0
-874 184 1 0
1 -159 131 0
54 53 -1 0
-689 136 -117 0
515 -91 -32 0
-54 -53 -41 0
-131 32 117 0
161 -151 -164 0
161 164 151 0
161 -136 164 0
-360 20 50 0
20 360 -50 0
-363 51 50 0
363 50 -51 0
-475 -66 80 0
-241 20 1 0
361 -50 -51 0
241 -20 1 0
20 -242 -1 0
242 -20 -1 0
617 32 -117 0
-604 114 -1 0
604 -114 -1 0
-606 114 1 0
606 -114 1 0
-615 -32 117 0
117 -617 32 0
615 -32 -117 0
-717 143 -1 0
715 -143 1 0
-715 143 1 0
476 -80 66 0
-476 80 66 0
475 -66 -80 0
287 -32 -1 0
-515 91 -32 0
-517 91 32 0
517 -91 32 0
312 -38 -1 0
-287 -1 32 0
-312 38 -1 0
311 -38 1 0
-311 1 38 0
288 1 -32 0
-288 1 32 0
360 -50 -1 0
-62 66 0
50 66 0
168 -166 0
159 160 0
160 131 0
-152 -151 0
-51 66 0
-39 -1 0
-152 -117 0
147 -117 0
38 -39 0
194 -166 0
164 -117 0
-151 -117 0
187 -159 0
-32 131 0
-75 32 0
-41 -1 0
147 131 0
-117 131 0
c restarts              : 776
c conflicts             : 25             (260 /sec)
c decisions             : 557845         (0.00 % random) (5810885 /sec)
c propagations          : 754136         (7855583 /sec)
c conflict literals     : 52             (5.45 % deleted)
c CPU time (sec.): 0.096
